<number of tasks>
20

<cycle time>
1000

<order strength>
0,5


<task times>
1 479
2 559
3 592
4 471
5 384
6 628
7 511
8 551
9 330
10 529
11 483
12 491
13 421
14 662
15 566
16 509
17 395
18 530
19 406
20 505

<precedence relations>
1,4
2,6
2,7
3,5
3,6
3,7
4,9
5,8
6,10
7,9
8,11
9,12
9,13
9,14
9,17
10,14
11,17
12,15
13,16
14,20
15,18
16,18
17,19
17,20

<end>
